\* Problem: Unknown *\

Maximize
 obj: + xp_0_0 + xp_0_1 + xp_1_0 + xp_2_0 + xp_2_1 + xp_3_0 + xp_4_0
 + xp_5_0 + xp_6_0 + xp_6_1 + xp_6_2 + xp_7_0 + xp_8_0 + xp_9_0
 + xp_10_0 + xp_10_1 + xp_11_0 + xp_12_0 + xp_12_1 + xp_13_0 + xp_14_0
 + xp_15_0 + xp_15_1 + xp_16_0 + xp_17_0 + xp_17_1 + xp_18_0 + xp_18_1
 + xp_19_0 + xp_20_0 + xp_21_0 + xp_21_1 + xp_21_2 + xp_22_0 + xp_22_1
 + xp_23_0 + xp_24_0 + xp_24_1 + xp_24_2 + xp_25_0 + xp_26_0 + xp_27_0
 + xp_28_0 + xp_28_1 + xp_29_0 + xp_30_0 + xp_31_0 + xp_31_1 + xp_32_0
 + xp_33_0 + xp_34_0 + xp_35_0 + xp_36_0 + xp_37_0 + xp_38_0 + xp_38_1
 + xp_39_0 + xp_40_0 + xp_40_1 + xp_41_0 + xp_42_0 + xp_42_1 + xp_43_0
 + xp_44_0 + xp_45_0 + xp_46_0 + xp_47_0 + xp_48_0 + xp_48_1 + xp_49_0
 + xp_50_0 + xp_51_0 + xp_52_0 + xp_52_1 + xp_53_0 + xp_54_0 + xp_55_0
 + xp_56_0 + xp_57_0 + xp_58_0 + xp_58_1 + xp_59_0 + xp_60_0 + xp_60_1
 + xp_60_2 + xp_61_0 + xp_61_1 + xp_62_0 + xp_63_0 + xp_63_1 + xp_64_0
 + xp_65_0

Subject To
 r_1: + xp_60_2 + xp_53_0 + xp_51_0 + xp_42_1 + xp_40_0 + xp_35_0
 + xp_33_0 <= 151.25355450237
 r_2: + xp_58_1 + xp_24_2 + xp_15_1 <= 155
 r_3: + xp_56_0 + xp_21_0 + xp_12_0 <= 155
 r_4: + xp_65_0 + xp_50_0 + xp_45_0 + xp_24_1 + xp_24_0 + xp_21_2
 + xp_15_0 + xp_10_1 + xp_10_0 + xp_5_0 + xp_2_1 <= 141.596349491323
 r_5: + xp_38_0 + xp_31_1 + xp_17_0 + xp_14_0 <= 141.596349491323
 r_6: + xp_52_1 + xp_22_0 + xp_21_1 + xp_13_0 + xp_12_1 + xp_3_0
 + xp_2_0 <= 153.637538779731
 r_7: + xp_60_1 + xp_48_1 + xp_46_0 + xp_42_0 + xp_40_1 + xp_6_2
 + xp_0_0 <= 151.25355450237
 r_8: 0 xp_0_0 <= 153.637538779731
 r_9: + xp_64_0 + xp_63_1 + xp_25_0 + xp_24_2 + xp_21_0 + xp_6_0
 <= 151.25355450237
 r_10: + xp_63_0 <= 152.393669634026
 r_11: + xp_61_1 + xp_60_0 + xp_38_1 + xp_31_0 <= 155
 r_12: + xp_62_0 + xp_61_0 + xp_60_2 + xp_60_1 + xp_22_1
 <= 153.637538779731
 r_13: + xp_64_0 + xp_59_0 + xp_58_1 + xp_56_0 + xp_29_0 + xp_24_2
 + xp_21_0 + xp_20_0 + xp_15_1 + xp_12_0 <= 151.25355450237
 r_14: + xp_60_2 + xp_60_1 + xp_57_0 + xp_53_0 + xp_42_1 + xp_35_0
 + xp_18_0 <= 151.25355450237
 r_15: + xp_63_1 + xp_58_0 <= 151.25355450237
 r_16: + xp_65_0 + xp_55_0 + xp_53_0 + xp_51_0 + xp_50_0 + xp_10_1
 + xp_10_0 <= 155
 r_17: + xp_58_1 + xp_54_0 + xp_52_1 + xp_36_0 + xp_31_1
 <= 141.596349491323
 r_18: + xp_52_0 + xp_21_2 + xp_2_1 <= 155
 r_19: + xp_60_0 + xp_48_0 <= 153.637538779731
 r_20: + xp_61_1 + xp_50_0 + xp_49_0 + xp_48_1 + xp_46_0 + xp_45_0
 + xp_10_1 + xp_6_2 <= 141.596349491323
 r_21: + xp_47_0 + xp_26_0 + xp_22_1 + xp_17_1 + xp_17_0 + xp_7_0 <= 155
 r_22: + xp_61_0 + xp_60_1 + xp_43_0 + xp_42_0 + xp_40_1 + xp_38_0
 <= 153.637538779731
 r_23: + xp_56_0 + xp_52_1 + xp_52_0 + xp_41_0 + xp_38_1 + xp_34_0
 + xp_31_0 <= 153.637538779731
 r_24: + xp_62_0 + xp_60_2 + xp_44_0 + xp_42_1 + xp_40_0 + xp_39_0
 + xp_21_1 + xp_12_1 + xp_2_0 <= 153.637538779731
 r_25: + xp_62_0 + xp_60_2 + xp_44_0 + xp_42_1 + xp_40_0 + xp_37_0
 + xp_35_0 + xp_33_0 <= 155
 r_26: + xp_39_0 + xp_36_0 + xp_32_0 + xp_31_1 <= 155
 r_27: + xp_56_0 + xp_52_0 + xp_34_0 + xp_31_0 + xp_30_0
 <= 153.637538779731
 r_28: + xp_60_0 + xp_48_1 + xp_48_0 + xp_42_0 + xp_27_0 + xp_25_0
 + xp_24_2 + xp_21_0 + xp_18_1 + xp_8_0 + xp_6_0 <= 152.393669634026
 r_29: + xp_29_0 + xp_28_0 + xp_24_1 + xp_22_0 + xp_6_1 + xp_0_1
 <= 151.25355450237
 r_30: + xp_63_0 + xp_28_1 + xp_26_0 + xp_24_0 + xp_23_0 + xp_22_1
 + xp_21_2 + xp_21_1 + xp_17_1 <= 153.637538779731
 r_31: + xp_63_1 + xp_58_0 + xp_28_0 + xp_24_1 + xp_22_0 + xp_19_0
 + xp_17_0 + xp_15_0 + xp_14_0 + xp_13_0 + xp_12_1 <= 151.25355450237
 r_32: + xp_60_1 + xp_46_0 + xp_40_1 + xp_29_0 + xp_20_0 + xp_18_0
 + xp_16_0 + xp_15_1 + xp_12_0 + xp_6_2 + xp_6_1 <= 151.25355450237
 r_33: + xp_48_1 + xp_42_0 + xp_18_1 + xp_17_1 + xp_11_0
 <= 151.25355450237
 r_34: + xp_26_0 + xp_23_0 + xp_22_1 + xp_17_1 + xp_10_1 + xp_7_0
 + xp_6_2 + xp_4_0 <= 153.637538779731
 r_35: + xp_60_0 + xp_48_0 + xp_8_0 + xp_6_1 + xp_6_0 + xp_1_0 + xp_0_1
 <= 153.637538779731
 r_36: + xp_63_0 + xp_28_1 + xp_24_0 + xp_21_2 + xp_21_1 + xp_10_0
 + xp_9_0 + xp_5_0 + xp_3_0 + xp_2_1 + xp_2_0 + xp_0_0
 <= 153.637538779731

Bounds
 0 <= xp_0_0 <= 6.94987353414578
 0 <= xp_0_1 <= 20.8496206024373
 0 <= xp_1_0 <= 22.524718326052
 0 <= xp_2_0 <= 18.6042768452518
 0 <= xp_2_1 <= 6.20142561508393
 0 <= xp_3_0 <= 14.3987123476661
 0 <= xp_4_0 <= 28.2271786617613
 0 <= xp_5_0 <= 22.524718326052
 0 <= xp_6_0 <= 12.9730972637388
 0 <= xp_6_1 <= 6.48654863186939
 0 <= xp_6_2 <= 6.48654863186939
 0 <= xp_7_0 <= 21.954472292481
 0 <= xp_8_0 <= 24.9482639687284
 0 <= xp_9_0 <= 17.3925040239135
 0 <= xp_10_0 <= 8.12600597838583
 0 <= xp_10_1 <= 8.12600597838583
 0 <= xp_11_0 <= 25.5185100022994
 0 <= xp_12_0 <= 8.33984824097493
 0 <= xp_12_1 <= 8.33984824097493
 0 <= xp_13_0 <= 14.9689583812371
 0 <= xp_14_0 <= 22.6672798344447
 0 <= xp_15_0 <= 14.1135893308807
 0 <= xp_15_1 <= 14.1135893308807
 0 <= xp_16_0 <= 26.9441250862267
 0 <= xp_17_0 <= 11.8326051965969
 0 <= xp_17_1 <= 11.8326051965969
 0 <= xp_18_0 <= 10.1218670958841
 0 <= xp_18_1 <= 10.1218670958841
 0 <= xp_19_0 <= 19.5309266498045
 0 <= xp_20_0 <= 23.2375258680156
 0 <= xp_21_0 <= 4.66888939986204
 0 <= xp_21_1 <= 9.33777879972407
 0 <= xp_21_2 <= 4.66888939986204
 0 <= xp_22_0 <= 5.66681995861117
 0 <= xp_22_1 <= 17.0004598758335
 0 <= xp_23_0 <= 23.3800873764084
 0 <= xp_24_0 <= 4.56196826856749
 0 <= xp_24_1 <= 9.12393653713497
 0 <= xp_24_2 <= 4.56196826856749
 0 <= xp_25_0 <= 27.7994941365831
 0 <= xp_26_0 <= 18.5329960910554
 0 <= xp_27_0 <= 14.9689583812371
 0 <= xp_28_0 <= 18.4973557139572
 0 <= xp_28_1 <= 6.16578523798574
 0 <= xp_29_0 <= 22.3821568176592
 0 <= xp_30_0 <= 27.6569326281904
 0 <= xp_31_0 <= 4.45504713727294
 0 <= xp_31_1 <= 13.3651414118188
 0 <= xp_32_0 <= 15.6817659232007
 0 <= xp_33_0 <= 18.8181191078409
 0 <= xp_34_0 <= 22.6672798344447
 0 <= xp_35_0 <= 15.539204414808
 0 <= xp_36_0 <= 17.9627500574845
 0 <= xp_37_0 <= 14.2561508392734
 0 <= xp_38_0 <= 13.2582202805243
 0 <= xp_38_1 <= 4.41940676017475
 0 <= xp_39_0 <= 15.1115198896298
 0 <= xp_40_0 <= 14.5412738560589
 0 <= xp_40_1 <= 4.84709128535295
 0 <= xp_41_0 <= 20.5288572085537
 0 <= xp_42_0 <= 17.9627500574845
 0 <= xp_42_1 <= 5.98758335249482
 0 <= xp_43_0 <= 16.9648194987353
 0 <= xp_44_0 <= 18.1053115658772
 0 <= xp_45_0 <= 14.9689583812371
 0 <= xp_46_0 <= 20.9565417337319
 0 <= xp_47_0 <= 19.9586111749828
 0 <= xp_48_0 <= 21.170383996321
 0 <= xp_48_1 <= 7.05679466544033
 0 <= xp_49_0 <= 14.8263968728443
 0 <= xp_50_0 <= 16.1094504483789
 0 <= xp_51_0 <= 24.092894918372
 0 <= xp_52_0 <= 19.9942515520809
 0 <= xp_52_1 <= 6.66475051736031
 0 <= xp_53_0 <= 27.9420556449758
 0 <= xp_54_0 <= 27.5143711197976
 0 <= xp_55_0 <= 21.5267877673028
 0 <= xp_56_0 <= 15.1115198896298
 0 <= xp_57_0 <= 17.8201885490917
 0 <= xp_58_0 <= 20.7426994711428
 0 <= xp_58_1 <= 6.9142331570476
 0 <= xp_59_0 <= 27.6569326281904
 0 <= xp_60_0 <= 8.76753276615314
 0 <= xp_60_1 <= 4.38376638307657
 0 <= xp_60_2 <= 4.38376638307657
 0 <= xp_61_0 <= 19.3527247643136
 0 <= xp_61_1 <= 6.45090825477121
 0 <= xp_62_0 <= 27.5143711197976
 0 <= xp_63_0 <= 19.3527247643136
 0 <= xp_63_1 <= 6.45090825477121
 0 <= xp_64_0 <= 27.7994941365831
 0 <= xp_65_0 <= 20.1011726833755

End
